// Objective function
max: 5 x12 + 3 x13 + 3 x35 + 2 x25 + 4 x24 + 6 x57 + 2 x58 + 1 x46 + 4 x47 + 5 x69 + 4 x79 + 7 x89;

// Constraints
x12 + x13 <= 1;
x35 + x25 + x24 <= 1;
x58 + x57 + x46 + x47 <= 1;
x69 + x79 + x89 <= 1;
x12 + x35 <= 1;
x13 + x24 + x25 <= 1;
x35 + x46 + x47 <= 1;
x25 + x46 + x47 <= 1;
x24 + x57 + x58 <= 1;
x58 + x69 + x79 <= 1;
x57 + x69 + x89 <= 1;
x47 + x69 + x89 <= 1;
x46 + x79 + x89 <= 1;

bin x12, x13, x35, x25, x24, x57, x58, x46, x47, x69, x79, x89;




